\ENCODING=ISO-8859-1
\Problem name: 

Minimize
 obj: x1 + x2 + x3 + x4 + x5 + x6 + x7 + x8 + x9 + x10 + x11 + x12 + 2 x13
      + 2 x14 + 2 x15 + 2 x16 + 2 x17 + 2 x18 + 2 x19 + 2 x20 + 2 x21 + 2 x22
      + 2 x23 + 2 x24 + 2 x25 + 2 x26 + 2 x27 + 3 x28 + 3 x29 + 3 x30 + 3 x31
      + 3 x32 + 3 x33 + 3 x34 + 3 x35 + 3 x36 + 3 x37 + 3 x38 + 3 x39 + 4 x40
      + 4 x41 + 4 x42 + 4 x43 + 4 x44 + 4 x45 + 4 x46 + 4 x47 + 4 x48 + 4 x49
      + 4 x50 + 4 x51 + 4 x52 + 5 x53 + 5 x54 + 5 x55 + 5 x56 + 5 x57 + 5 x58
      + 5 x59 + 5 x60 + 6 x61 + 6 x62 + 6 x63 + 6 x64 + 6 x65 + 6 x66 + 6 x67
      + 6 x68 + 6 x69 + 7 x70 + 7 x71 + 7 x72 + 7 x73 + 7 x74 + 7 x75 + 7 x76
      + 7 x77 + 7 x78 + 7 x79 + 7 x80 + 8 x81 + 8 x82 + 8 x83 + 8 x84 + 8 x85
      + 8 x86 + 9 x87 + 9 x88 + 9 x89 + 9 x90 + 9 x91 + 10 x92 + 10 x93
      + 10 x94 + 10 x95 + 10 x96 + 11 x97 + 11 x98 + 11 x99 + 11 x100 + 11 x101
      + 11 x102 + 12 x103 + 12 x104 + 12 x105 + 12 x106 + 12 x107 + 12 x108
      + 12 x109 + 12 x110 + 12 x111 + 12 x112 + 13 x113 + 13 x114 + 13 x115
      + 13 x116 + 13 x117 + 13 x118 + 14 x119 + 14 x120 + 14 x121 + 14 x122
      + 14 x123 + 14 x124 + 14 x125 + 14 x126 + 14 x127 + 15 x128 + 15 x129
      + 15 x130 + 15 x131 + 15 x132 + 15 x133 + 15 x134 + 16 x135 + 16 x136
      + 17 x137 + 18 x138 + 18 x139 + 18 x140 + 18 x141 + 19 x142 + 20 x143
      + 22 x144 + 22 x145 + 23 x146 + 24 x147 + 27 x148 + 27 x149 + 27 x150
      + 28 x151 + 29 x152 + 32 x153 + 34 x154 + 39 x155 + 43 x156 + 51 x157
      + 58 x158
Subject To
 c1:   x84 + x145 >= 1
 c2:   x22 + x44 + x88 + x154 >= 1
 c3:   x2 + x97 + x125 + x155 >= 1
 c4:   x2 + x106 >= 1
 c5:   x18 + x74 + x78 + x98 + x133 >= 1
 c6:   x14 + x48 + x71 >= 1
 c7:   x71 + x110 + x158 >= 1
 c8:   x101 + x124 + x149 + x150 >= 1
 c9:   x50 + x55 + x113 + x151 >= 1
 c10:  x3 + x6 + x60 + x89 + x119 + x137 + x149 >= 1
 c11:  x61 + x100 + x150 + x158 >= 1
 c12:  x3 + x24 + x29 + x42 + x56 + x99 + x113 + x156 >= 1
 c13:  x14 + x113 >= 1
 c14:  x63 + x88 + x148 >= 1
 c15:  x46 + x108 + x123 + x138 >= 1
 c16:  x79 >= 1
 c17:  x6 + x17 + x33 + x97 + x137 >= 1
 c18:  x1 + x73 + x87 + x103 + x121 >= 1
 c19:  x15 >= 1
 c20:  x36 + x106 + x119 + x138 >= 1
 c21:  x41 + x95 + x106 + x123 >= 1
 c22:  x53 + x73 + x98 + x128 >= 1
 c23:  x16 + x19 + x59 + x62 + x75 + x78 >= 1
 c24:  x92 + x96 + x110 + x116 + x137 + x142 >= 1
 c25:  x68 + x100 + x103 + x122 + x129 + x132 >= 1
 c26:  x28 + x49 + x133 >= 1
 c27:  x35 + x115 + x141 >= 1
 c28:  x12 >= 1
 c29:  x32 + x34 + x62 + x65 + x88 + x92 >= 1
 c30:  x66 + x97 + x149 >= 1
 c31:  x11 + x45 + x102 + x116 >= 1
 c32:  x1 + x17 + x20 + x77 + x131 >= 1
 c33:  x11 >= 1
 c34:  x112 + x148 + x150 >= 1
 c35:  x38 + x40 + x142 >= 1
 c36:  x16 + x35 + x97 >= 1
 c37:  x84 + x142 >= 1
 c38:  x59 + x62 + x87 + x155 >= 1
 c39:  x8 + x76 + x114 + x152 >= 1
 c40:  x41 + x73 + x120 >= 1
 c41:  x37 + x43 + x67 + x120 + x149 >= 1
 c42:  x102 >= 1
 c43:  x70 + x105 + x138 >= 1
 c44:  x35 + x41 + x61 + x93 + x142 >= 1
 c45:  x18 + x130 >= 1
 c46:  x19 + x103 + x131 >= 1
 c47:  x14 + x29 + x106 >= 1
 c48:  x70 + x144 >= 1
 c49:  x13 + x61 >= 1
 c50:  x43 + x136 >= 1
 c51:  x21 + x76 + x104 + x128 + x141 + x147 >= 1
 c52:  x71 + x153 >= 1
 c53:  x20 + x30 + x98 + x127 + x155 >= 1
 c54:  x101 + x103 + x106 + x127 + x128 + x153 >= 1
 c55:  x57 + x103 >= 1
 c56:  x71 + x82 + x94 + x111 + x131 >= 1
 c57:  x98 + x147 >= 1
 c58:  x108 + x119 + x143 >= 1
 c59:  x78 + x125 + x143 >= 1
 c60:  x26 >= 1
 c61:  x13 + x14 + x19 + x21 + x157 >= 1
 c62:  x83 + x89 + x126 + x157 + x158 >= 1
 c63:  x44 + x75 + x114 + x137 >= 1
 c64:  x30 + x67 + x109 + x115 + x122 + x131 >= 1
 c65:  x8 + x14 + x50 + x62 + x83 + x158 >= 1
 c66:  x17 + x36 + x73 + x154 >= 1
 c67:  x28 + x128 >= 1
 c68:  x28 + x56 + x71 + x108 >= 1
 c69:  x91 >= 1
 c70:  x52 + x61 + x131 + x155 >= 1
 c71:  x40 + x107 + x138 + x144 >= 1
 c72:  x13 + x87 + x97 + x156 >= 1
 c73:  x21 + x150 >= 1
 c74:  x49 + x158 >= 1
 c75:  x1 + x30 + x72 + x104 >= 1
 c76:  x1 + x4 + x18 + x29 + x47 + x48 + x122 + x157 >= 1
 c77:  x18 + x97 >= 1
 c78:  x7 + x32 + x42 + x103 >= 1
 c79:  x13 + x85 + x135 >= 1
 c80:  x58 + x95 + x96 >= 1
 c81:  x24 + x25 + x67 >= 1
 c82:  x9 + x24 + x72 + x152 >= 1
 c83:  x82 + x103 >= 1
 c84:  x13 + x44 + x68 + x138 >= 1
 c85:  x57 + x85 + x86 >= 1
 c86:  x5 + x31 + x105 + x123 >= 1
 c87:  x140 + x148 >= 1
 c88:  x39 + x54 + x72 + x87 + x118 + x152 >= 1
 c89:  x20 + x30 + x80 + x103 >= 1
 c90:  x42 + x54 + x122 + x140 >= 1
 c91:  x51 + x147 >= 1
 c92:  x7 + x28 >= 1
 c93:  x61 + x94 + x110 >= 1
 c94:  x10 + x40 + x75 >= 1
 c95:  x6 + x77 + x130 >= 1
 c96:  x6 + x41 + x79 + x128 + x129 + x136 + x146 >= 1
 c97:  x13 + x59 + x75 + x151 >= 1
 c98:  x3 >= 1
 c99:  x88 + x94 + x97 + x152 + x155 + x156 >= 1
 c100: x19 + x69 + x87 + x124 >= 1
 c101: x47 + x155 >= 1
 c102: x4 + x84 + x108 + x130 + x155 + x157 >= 1
 c103: x74 + x117 + x139 >= 1
 c104: x29 >= 1
 c105: x72 + x92 + x105 + x122 >= 1
 c106: x5 + x73 + x75 >= 1
 c107: x1 + x72 + x91 + x98 >= 1
 c108: x2 + x66 + x83 + x100 >= 1
 c109: x9 >= 1
 c110: x2 + x3 + x74 + x113 + x123 >= 1
 c111: x58 + x77 + x101 + x123 >= 1
 c112: x45 + x48 + x129 >= 1
 c113: x82 + x117 + x132 + x152 >= 1
 c114: x61 + x62 + x71 + x81 + x83 + x148 >= 1
 c115: x84 + x114 + x130 + x149 + x153 >= 1
 c116: x53 + x104 + x126 >= 1
 c117: x32 + x126 >= 1
 c118: x4 + x29 + x93 + x144 + x146 >= 1
 c119: x64 + x157 >= 1
 c120: x20 + x134 + x144 >= 1
 c121: x16 + x33 + x49 + x81 + x114 + x121 + x147 >= 1
 c122: x17 + x35 >= 1
 c123: x90 + x119 + x146 >= 1
 c124: x93 + x104 >= 1
 c125: x34 + x76 + x121 >= 1
 c126: x92 + x156 >= 1
 c127: x28 + x125 >= 1
 c128: x3 + x30 + x34 + x37 + x137 + x154 >= 1
 c129: x11 + x53 + x113 >= 1
 c130: x55 + x113 + x135 >= 1
 c131: x69 >= 1
 c132: x44 + x64 >= 1
 c133: x10 + x27 + x154 >= 1
 c134: x70 + x146 + x155 >= 1
 c135: x57 + x70 + x78 >= 1
 c136: x32 + x40 + x72 + x99 + x103 + x104 + x114 + x124 >= 1
 c137: x86 + x140 >= 1
 c138: x2 + x157 >= 1
 c139: x70 + x99 >= 1
 c140: x31 + x46 + x74 + x75 + x105 + x153 >= 1
 c141: x33 + x55 + x104 + x116 + x129 >= 1
 c142: x9 + x124 + x132 >= 1
 c143: x45 + x46 + x53 + x104 + x107 + x109 + x114 >= 1
 c144: x56 + x85 + x156 >= 1
 c145: x26 + x73 + x107 + x121 >= 1
 c146: x15 + x55 >= 1
 c147: x55 + x92 + x128 + x147 + x148 >= 1
 c148: x43 + x158 >= 1
 c149: x47 + x63 + x139 + x143 >= 1
 c150: x53 + x121 >= 1
 c151: x28 + x54 + x81 + x106 + x109 + x120 + x146 >= 1
 c152: x38 + x86 + x156 >= 1
 c153: x27 + x93 + x107 + x124 >= 1
 c154: x3 + x81 + x144 >= 1
 c155: x79 + x135 + x151 >= 1
 c156: x76 + x110 + x117 >= 1
 c157: x43 + x99 >= 1
 c158: x98 + x120 + x152 >= 1
 c159: x33 + x96 + x129 + x148 >= 1
 c160: x2 + x5 + x42 + x100 + x115 >= 1
 c161: x74 + x127 + x138 >= 1
 c162: x105 >= 1
 c163: x51 + x66 + x73 >= 1
 c164: x7 + x14 + x65 + x137 + x144 >= 1
 c165: x54 + x58 + x64 + x70 + x113 + x137 >= 1
 c166: x13 + x46 + x70 + x103 + x132 >= 1
 c167: x16 + x23 + x44 + x139 >= 1
 c168: x115 + x133 + x149 >= 1
 c169: x23 + x107 >= 1
 c170: x22 + x34 + x157 >= 1
 c171: x54 + x56 + x111 + x129 >= 1
 c172: x63 + x65 + x80 + x137 + x147 >= 1
 c173: x109 + x121 + x130 >= 1
 c174: x154 + x156 + x157 + x158 >= 1
 c175: x4 + x25 + x54 + x63 + x65 + x80 + x103 + x133 + x134 >= 1
 c176: x41 + x143 + x151 >= 1
 c177: x41 + x104 + x120 + x145 >= 1
 c178: x57 + x95 + x126 >= 1
 c179: x118 + x120 + x134 + x135 >= 1
 c180: x5 + x42 + x76 >= 1
 c181: x2 + x43 + x89 >= 1
 c182: x45 >= 1
 c183: x22 + x74 + x105 >= 1
 c184: x105 + x119 + x139 >= 1
 c185: x26 + x31 + x77 + x119 + x127 >= 1
 c186: x10 >= 1
 c187: x82 + x128 >= 1
 c188: x8 + x111 + x137 >= 1
 c189: x40 + x146 >= 1
 c190: x1 + x146 >= 1
 c191: x23 + x52 + x70 + x94 >= 1
 c192: x25 + x42 + x108 + x128 >= 1
 c193: x125 + x136 + x144 + x145 + x148 + x151 >= 1
 c194: x60 + x113 + x115 + x142 + x153 >= 1
 c195: x40 + x104 >= 1
 c196: x1 + x53 + x93 + x129 + x150 + x157 >= 1
 c197: x15 + x31 + x64 + x99 >= 1
 c198: x141 + x155 >= 1
 c199: x1 + x15 + x71 + x72 + x81 + x90 >= 1
 c200: x36 + x82 + x104 >= 1
Bounds
 0 <= x1 <= 1
 0 <= x2 <= 1
 0 <= x3 <= 1
 0 <= x4 <= 1
 0 <= x5 <= 1
 0 <= x6 <= 1
 0 <= x7 <= 1
 0 <= x8 <= 1
 0 <= x9 <= 1
 0 <= x10 <= 1
 0 <= x11 <= 1
 0 <= x12 <= 1
 0 <= x13 <= 1
 0 <= x14 <= 1
 0 <= x15 <= 1
 0 <= x16 <= 1
 0 <= x17 <= 1
 0 <= x18 <= 1
 0 <= x19 <= 1
 0 <= x20 <= 1
 0 <= x21 <= 1
 0 <= x22 <= 1
 0 <= x23 <= 1
 0 <= x24 <= 1
 0 <= x25 <= 1
 0 <= x26 <= 1
 0 <= x27 <= 1
 0 <= x28 <= 1
 0 <= x29 <= 1
 0 <= x30 <= 1
 0 <= x31 <= 1
 0 <= x32 <= 1
 0 <= x33 <= 1
 0 <= x34 <= 1
 0 <= x35 <= 1
 0 <= x36 <= 1
 0 <= x37 <= 1
 0 <= x38 <= 1
 0 <= x39 <= 1
 0 <= x40 <= 1
 0 <= x41 <= 1
 0 <= x42 <= 1
 0 <= x43 <= 1
 0 <= x44 <= 1
 0 <= x45 <= 1
 0 <= x46 <= 1
 0 <= x47 <= 1
 0 <= x48 <= 1
 0 <= x49 <= 1
 0 <= x50 <= 1
 0 <= x51 <= 1
 0 <= x52 <= 1
 0 <= x53 <= 1
 0 <= x54 <= 1
 0 <= x55 <= 1
 0 <= x56 <= 1
 0 <= x57 <= 1
 0 <= x58 <= 1
 0 <= x59 <= 1
 0 <= x60 <= 1
 0 <= x61 <= 1
 0 <= x62 <= 1
 0 <= x63 <= 1
 0 <= x64 <= 1
 0 <= x65 <= 1
 0 <= x66 <= 1
 0 <= x67 <= 1
 0 <= x68 <= 1
 0 <= x69 <= 1
 0 <= x70 <= 1
 0 <= x71 <= 1
 0 <= x72 <= 1
 0 <= x73 <= 1
 0 <= x74 <= 1
 0 <= x75 <= 1
 0 <= x76 <= 1
 0 <= x77 <= 1
 0 <= x78 <= 1
 0 <= x79 <= 1
 0 <= x80 <= 1
 0 <= x81 <= 1
 0 <= x82 <= 1
 0 <= x83 <= 1
 0 <= x84 <= 1
 0 <= x85 <= 1
 0 <= x86 <= 1
 0 <= x87 <= 1
 0 <= x88 <= 1
 0 <= x89 <= 1
 0 <= x90 <= 1
 0 <= x91 <= 1
 0 <= x92 <= 1
 0 <= x93 <= 1
 0 <= x94 <= 1
 0 <= x95 <= 1
 0 <= x96 <= 1
 0 <= x97 <= 1
 0 <= x98 <= 1
 0 <= x99 <= 1
 0 <= x100 <= 1
 0 <= x101 <= 1
 0 <= x102 <= 1
 0 <= x103 <= 1
 0 <= x104 <= 1
 0 <= x105 <= 1
 0 <= x106 <= 1
 0 <= x107 <= 1
 0 <= x108 <= 1
 0 <= x109 <= 1
 0 <= x110 <= 1
 0 <= x111 <= 1
 0 <= x112 <= 1
 0 <= x113 <= 1
 0 <= x114 <= 1
 0 <= x115 <= 1
 0 <= x116 <= 1
 0 <= x117 <= 1
 0 <= x118 <= 1
 0 <= x119 <= 1
 0 <= x120 <= 1
 0 <= x121 <= 1
 0 <= x122 <= 1
 0 <= x123 <= 1
 0 <= x124 <= 1
 0 <= x125 <= 1
 0 <= x126 <= 1
 0 <= x127 <= 1
 0 <= x128 <= 1
 0 <= x129 <= 1
 0 <= x130 <= 1
 0 <= x131 <= 1
 0 <= x132 <= 1
 0 <= x133 <= 1
 0 <= x134 <= 1
 0 <= x135 <= 1
 0 <= x136 <= 1
 0 <= x137 <= 1
 0 <= x138 <= 1
 0 <= x139 <= 1
 0 <= x140 <= 1
 0 <= x141 <= 1
 0 <= x142 <= 1
 0 <= x143 <= 1
 0 <= x144 <= 1
 0 <= x145 <= 1
 0 <= x146 <= 1
 0 <= x147 <= 1
 0 <= x148 <= 1
 0 <= x149 <= 1
 0 <= x150 <= 1
 0 <= x151 <= 1
 0 <= x152 <= 1
 0 <= x153 <= 1
 0 <= x154 <= 1
 0 <= x155 <= 1
 0 <= x156 <= 1
 0 <= x157 <= 1
 0 <= x158 <= 1
Binaries
 x1  x2  x3  x4  x5  x6  x7  x8  x9  x10  x11  x12  x13  x14  x15  x16  x17 
 x18  x19  x20  x21  x22  x23  x24  x25  x26  x27  x28  x29  x30  x31  x32 
 x33  x34  x35  x36  x37  x38  x39  x40  x41  x42  x43  x44  x45  x46  x47 
 x48  x49  x50  x51  x52  x53  x54  x55  x56  x57  x58  x59  x60  x61  x62 
 x63  x64  x65  x66  x67  x68  x69  x70  x71  x72  x73  x74  x75  x76  x77 
 x78  x79  x80  x81  x82  x83  x84  x85  x86  x87  x88  x89  x90  x91  x92 
 x93  x94  x95  x96  x97  x98  x99  x100  x101  x102  x103  x104  x105  x106 
 x107  x108  x109  x110  x111  x112  x113  x114  x115  x116  x117  x118  x119 
 x120  x121  x122  x123  x124  x125  x126  x127  x128  x129  x130  x131  x132 
 x133  x134  x135  x136  x137  x138  x139  x140  x141  x142  x143  x144  x145 
 x146  x147  x148  x149  x150  x151  x152  x153  x154  x155  x156  x157  x158 
End
